letting numberLocations be  32
letting costs be function (
(0,0) --> 0,
(0,1) --> 26,
(0,2) --> 61,
(0,3) --> 61,
(0,4) --> 59,
(0,5) --> 35,
(0,6) --> 31,
(0,7) --> 37,
(0,8) --> 57,
(0,9) --> 72,
(0,10) --> 13,
(0,11) --> 43,
(0,12) --> 35,
(0,13) --> 28,
(0,14) --> 14,
(0,15) --> 65,
(0,16) --> 40,
(0,17) --> 25,
(0,18) --> 30,
(0,19) --> 41,
(0,20) --> 62,
(0,21) --> 23,
(0,22) --> 49,
(0,23) --> 55,
(0,24) --> 42,
(0,25) --> 21,
(0,26) --> 58,
(0,27) --> 36,
(0,28) --> 6,
(0,29) --> 68,
(0,30) --> 38,
(0,31) --> 31,
(0,32) --> 9,
(1,0) --> 26,
(1,1) --> 0,
(1,2) --> 35,
(1,3) --> 39,
(1,4) --> 40,
(1,5) --> 14,
(1,6) --> 5,
(1,7) --> 10,
(1,8) --> 36,
(1,9) --> 46,
(1,10) --> 25,
(1,11) --> 38,
(1,12) --> 45,
(1,13) --> 5,
(1,14) --> 14,
(1,15) --> 39,
(1,16) --> 64,
(1,17) --> 20,
(1,18) --> 4,
(1,19) --> 16,
(1,20) --> 36,
(1,21) --> 39,
(1,22) --> 37,
(1,23) --> 60,
(1,24) --> 46,
(1,25) --> 45,
(1,26) --> 46,
(1,27) --> 63,
(1,28) --> 32,
(1,29) --> 53,
(1,30) --> 63,
(1,31) --> 50,
(1,32) --> 27,
(2,0) --> 61,
(2,1) --> 35,
(2,2) --> 0,
(2,3) --> 15,
(2,4) --> 24,
(2,5) --> 27,
(2,6) --> 32,
(2,7) --> 26,
(2,8) --> 19,
(2,9) --> 11,
(2,10) --> 60,
(2,11) --> 63,
(2,12) --> 78,
(2,13) --> 33,
(2,14) --> 49,
(2,15) --> 4,
(2,16) --> 99,
(2,17) --> 52,
(2,18) --> 33,
(2,19) --> 27,
(2,20) --> 6,
(2,21) --> 74,
(2,22) --> 36,
(2,23) --> 72,
(2,24) --> 60,
(2,25) --> 81,
(2,26) --> 40,
(2,27) --> 97,
(2,28) --> 67,
(2,29) --> 62,
(2,30) --> 98,
(2,31) --> 77,
(2,32) --> 62,
(3,0) --> 61,
(3,1) --> 39,
(3,2) --> 15,
(3,3) --> 0,
(3,4) --> 10,
(3,5) --> 27,
(3,6) --> 37,
(3,7) --> 32,
(3,8) --> 6,
(3,9) --> 21,
(3,10) --> 64,
(3,11) --> 72,
(3,12) --> 84,
(3,13) --> 35,
(3,14) --> 52,
(3,15) --> 17,
(3,16) --> 101,
(3,17) --> 58,
(3,18) --> 38,
(3,19) --> 36,
(3,20) --> 21,
(3,21) --> 78,
(3,22) --> 24,
(3,23) --> 60,
(3,24) --> 50,
(3,25) --> 82,
(3,26) --> 27,
(3,27) --> 96,
(3,28) --> 67,
(3,29) --> 75,
(3,30) --> 99,
(3,31) --> 72,
(3,32) --> 65,
(4,0) --> 59,
(4,1) --> 40,
(4,2) --> 24,
(4,3) --> 10,
(4,4) --> 0,
(4,5) --> 27,
(4,6) --> 40,
(4,7) --> 35,
(4,8) --> 6,
(4,9) --> 31,
(4,10) --> 64,
(4,11) --> 76,
(4,12) --> 86,
(4,13) --> 36,
(4,14) --> 52,
(4,15) --> 27,
(4,16) --> 99,
(4,17) --> 60,
(4,18) --> 40,
(4,19) --> 41,
(4,20) --> 30,
(4,21) --> 78,
(4,22) --> 16,
(4,23) --> 51,
(4,24) --> 42,
(4,25) --> 81,
(4,26) --> 17,
(4,27) --> 93,
(4,28) --> 64,
(4,29) --> 82,
(4,30) --> 96,
(4,31) --> 66,
(4,32) --> 64,
(5,0) --> 35,
(5,1) --> 14,
(5,2) --> 27,
(5,3) --> 27,
(5,4) --> 27,
(5,5) --> 0,
(5,6) --> 15,
(5,7) --> 13,
(5,8) --> 23,
(5,9) --> 38,
(5,10) --> 37,
(5,11) --> 51,
(5,12) --> 59,
(5,13) --> 9,
(5,14) --> 26,
(5,15) --> 31,
(5,16) --> 74,
(5,17) --> 34,
(5,18) --> 15,
(5,19) --> 21,
(5,20) --> 30,
(5,21) --> 52,
(5,22) --> 24,
(5,23) --> 52,
(5,24) --> 38,
(5,25) --> 56,
(5,26) --> 33,
(5,27) --> 70,
(5,28) --> 40,
(5,29) --> 63,
(5,30) --> 72,
(5,31) --> 51,
(5,32) --> 38,
(6,0) --> 31,
(6,1) --> 5,
(6,2) --> 32,
(6,3) --> 37,
(6,4) --> 40,
(6,5) --> 15,
(6,6) --> 0,
(6,7) --> 6,
(6,8) --> 35,
(6,9) --> 42,
(6,10) --> 28,
(6,11) --> 36,
(6,12) --> 47,
(6,13) --> 8,
(6,14) --> 18,
(6,15) --> 35,
(6,16) --> 67,
(6,17) --> 21,
(6,18) --> 1,
(6,19) --> 11,
(6,20) --> 32,
(6,21) --> 42,
(6,22) --> 39,
(6,23) --> 64,
(6,24) --> 50,
(6,25) --> 49,
(6,26) --> 47,
(6,27) --> 67,
(6,28) --> 37,
(6,29) --> 49,
(6,30) --> 67,
(6,31) --> 55,
(6,32) --> 31,
(7,0) --> 37,
(7,1) --> 10,
(7,2) --> 26,
(7,3) --> 32,
(7,4) --> 35,
(7,5) --> 13,
(7,6) --> 6,
(7,7) --> 0,
(7,8) --> 30,
(7,9) --> 36,
(7,10) --> 35,
(7,11) --> 41,
(7,12) --> 53,
(7,13) --> 10,
(7,14) --> 24,
(7,15) --> 29,
(7,16) --> 74,
(7,17) --> 27,
(7,18) --> 7,
(7,19) --> 9,
(7,20) --> 26,
(7,21) --> 49,
(7,22) --> 36,
(7,23) --> 64,
(7,24) --> 51,
(7,25) --> 55,
(7,26) --> 44,
(7,27) --> 73,
(7,28) --> 42,
(7,29) --> 51,
(7,30) --> 73,
(7,31) --> 59,
(7,32) --> 37,
(8,0) --> 57,
(8,1) --> 36,
(8,2) --> 19,
(8,3) --> 6,
(8,4) --> 6,
(8,5) --> 23,
(8,6) --> 35,
(8,7) --> 30,
(8,8) --> 0,
(8,9) --> 26,
(8,10) --> 60,
(8,11) --> 71,
(8,12) --> 81,
(8,13) --> 32,
(8,14) --> 49,
(8,15) --> 22,
(8,16) --> 96,
(8,17) --> 56,
(8,18) --> 35,
(8,19) --> 36,
(8,20) --> 24,
(8,21) --> 75,
(8,22) --> 18,
(8,23) --> 54,
(8,24) --> 44,
(8,25) --> 78,
(8,26) --> 21,
(8,27) --> 91,
(8,28) --> 62,
(8,29) --> 77,
(8,30) --> 94,
(8,31) --> 66,
(8,32) --> 61,
(9,0) --> 72,
(9,1) --> 46,
(9,2) --> 11,
(9,3) --> 21,
(9,4) --> 31,
(9,5) --> 38,
(9,6) --> 42,
(9,7) --> 36,
(9,8) --> 26,
(9,9) --> 0,
(9,10) --> 71,
(9,11) --> 70,
(9,12) --> 87,
(9,13) --> 44,
(9,14) --> 60,
(9,15) --> 7,
(9,16) --> 110,
(9,17) --> 62,
(9,18) --> 43,
(9,19) --> 36,
(9,20) --> 11,
(9,21) --> 84,
(9,22) --> 44,
(9,23) --> 81,
(9,24) --> 70,
(9,25) --> 91,
(9,26) --> 47,
(9,27) --> 108,
(9,28) --> 78,
(9,29) --> 65,
(9,30) --> 109,
(9,31) --> 88,
(9,32) --> 73,
(10,0) --> 13,
(10,1) --> 25,
(10,2) --> 60,
(10,3) --> 64,
(10,4) --> 64,
(10,5) --> 37,
(10,6) --> 28,
(10,7) --> 35,
(10,8) --> 60,
(10,9) --> 71,
(10,10) --> 0,
(10,11) --> 31,
(10,12) --> 24,
(10,13) --> 29,
(10,14) --> 11,
(10,15) --> 64,
(10,16) --> 39,
(10,17) --> 14,
(10,18) --> 28,
(10,19) --> 37,
(10,20) --> 60,
(10,21) --> 15,
(10,22) --> 56,
(10,23) --> 67,
(10,24) --> 54,
(10,25) --> 21,
(10,26) --> 65,
(10,27) --> 41,
(10,28) --> 15,
(10,29) --> 57,
(10,30) --> 39,
(10,31) --> 44,
(10,32) --> 4,
(11,0) --> 43,
(11,1) --> 38,
(11,2) --> 63,
(11,3) --> 72,
(11,4) --> 76,
(11,5) --> 51,
(11,6) --> 36,
(11,7) --> 41,
(11,8) --> 71,
(11,9) --> 70,
(11,10) --> 31,
(11,11) --> 0,
(11,12) --> 23,
(11,13) --> 43,
(11,14) --> 33,
(11,15) --> 65,
(11,16) --> 58,
(11,17) --> 20,
(11,18) --> 37,
(11,19) --> 36,
(11,20) --> 60,
(11,21) --> 31,
(11,22) --> 75,
(11,23) --> 94,
(11,24) --> 80,
(11,25) --> 45,
(11,26) --> 84,
(11,27) --> 66,
(11,28) --> 46,
(11,29) --> 29,
(11,30) --> 60,
(11,31) --> 74,
(11,32) --> 34,
(12,0) --> 35,
(12,1) --> 45,
(12,2) --> 78,
(12,3) --> 84,
(12,4) --> 86,
(12,5) --> 59,
(12,6) --> 47,
(12,7) --> 53,
(12,8) --> 81,
(12,9) --> 87,
(12,10) --> 24,
(12,11) --> 23,
(12,12) --> 0,
(12,13) --> 50,
(12,14) --> 34,
(12,15) --> 81,
(12,16) --> 35,
(12,17) --> 26,
(12,18) --> 46,
(12,19) --> 52,
(12,20) --> 76,
(12,21) --> 13,
(12,22) --> 80,
(12,23) --> 91,
(12,24) --> 78,
(12,25) --> 27,
(12,26) --> 89,
(12,27) --> 46,
(12,28) --> 35,
(12,29) --> 52,
(12,30) --> 38,
(12,31) --> 63,
(12,32) --> 26,
(13,0) --> 28,
(13,1) --> 5,
(13,2) --> 33,
(13,3) --> 35,
(13,4) --> 36,
(13,5) --> 9,
(13,6) --> 8,
(13,7) --> 10,
(13,8) --> 32,
(13,9) --> 44,
(13,10) --> 29,
(13,11) --> 43,
(13,12) --> 50,
(13,13) --> 0,
(13,14) --> 17,
(13,15) --> 37,
(13,16) --> 67,
(13,17) --> 25,
(13,18) --> 7,
(13,19) --> 18,
(13,20) --> 34,
(13,21) --> 43,
(13,22) --> 32,
(13,23) --> 56,
(13,24) --> 42,
(13,25) --> 48,
(13,26) --> 41,
(13,27) --> 64,
(13,28) --> 34,
(13,29) --> 57,
(13,30) --> 65,
(13,31) --> 49,
(13,32) --> 30,
(14,0) --> 14,
(14,1) --> 14,
(14,2) --> 49,
(14,3) --> 52,
(14,4) --> 52,
(14,5) --> 26,
(14,6) --> 18,
(14,7) --> 24,
(14,8) --> 49,
(14,9) --> 60,
(14,10) --> 11,
(14,11) --> 33,
(14,12) --> 34,
(14,13) --> 17,
(14,14) --> 0,
(14,15) --> 53,
(14,16) --> 50,
(14,17) --> 13,
(14,18) --> 17,
(14,19) --> 28,
(14,20) --> 50,
(14,21) --> 26,
(14,22) --> 46,
(14,23) --> 61,
(14,24) --> 47,
(14,25) --> 31,
(14,26) --> 55,
(14,27) --> 49,
(14,28) --> 19,
(14,29) --> 56,
(14,30) --> 49,
(14,31) --> 43,
(14,32) --> 13,
(15,0) --> 65,
(15,1) --> 39,
(15,2) --> 4,
(15,3) --> 17,
(15,4) --> 27,
(15,5) --> 31,
(15,6) --> 35,
(15,7) --> 29,
(15,8) --> 22,
(15,9) --> 7,
(15,10) --> 64,
(15,11) --> 65,
(15,12) --> 81,
(15,13) --> 37,
(15,14) --> 53,
(15,15) --> 0,
(15,16) --> 103,
(15,17) --> 55,
(15,18) --> 36,
(15,19) --> 29,
(15,20) --> 5,
(15,21) --> 77,
(15,22) --> 39,
(15,23) --> 75,
(15,24) --> 64,
(15,25) --> 84,
(15,26) --> 43,
(15,27) --> 101,
(15,28) --> 70,
(15,29) --> 62,
(15,30) --> 102,
(15,31) --> 81,
(15,32) --> 66,
(16,0) --> 40,
(16,1) --> 64,
(16,2) --> 99,
(16,3) --> 101,
(16,4) --> 99,
(16,5) --> 74,
(16,6) --> 67,
(16,7) --> 74,
(16,8) --> 96,
(16,9) --> 110,
(16,10) --> 39,
(16,11) --> 58,
(16,12) --> 35,
(16,13) --> 67,
(16,14) --> 50,
(16,15) --> 103,
(16,16) --> 0,
(16,17) --> 51,
(16,18) --> 67,
(16,19) --> 76,
(16,20) --> 99,
(16,21) --> 28,
(16,22) --> 88,
(16,23) --> 84,
(16,24) --> 75,
(16,25) --> 18,
(16,26) --> 96,
(16,27) --> 17,
(16,28) --> 34,
(16,29) --> 86,
(16,30) --> 6,
(16,31) --> 50,
(16,32) --> 37,
(17,0) --> 25,
(17,1) --> 20,
(17,2) --> 52,
(17,3) --> 58,
(17,4) --> 60,
(17,5) --> 34,
(17,6) --> 21,
(17,7) --> 27,
(17,8) --> 56,
(17,9) --> 62,
(17,10) --> 14,
(17,11) --> 20,
(17,12) --> 26,
(17,13) --> 25,
(17,14) --> 13,
(17,15) --> 55,
(17,16) --> 51,
(17,17) --> 0,
(17,18) --> 21,
(17,19) --> 26,
(17,20) --> 51,
(17,21) --> 24,
(17,22) --> 57,
(17,23) --> 74,
(17,24) --> 60,
(17,25) --> 34,
(17,26) --> 66,
(17,27) --> 55,
(17,28) --> 29,
(17,29) --> 44,
(17,30) --> 52,
(17,31) --> 55,
(17,32) --> 18,
(18,0) --> 30,
(18,1) --> 4,
(18,2) --> 33,
(18,3) --> 38,
(18,4) --> 40,
(18,5) --> 15,
(18,6) --> 1,
(18,7) --> 7,
(18,8) --> 35,
(18,9) --> 43,
(18,10) --> 28,
(18,11) --> 37,
(18,12) --> 46,
(18,13) --> 7,
(18,14) --> 17,
(18,15) --> 36,
(18,16) --> 67,
(18,17) --> 21,
(18,18) --> 0,
(18,19) --> 12,
(18,20) --> 33,
(18,21) --> 42,
(18,22) --> 38,
(18,23) --> 63,
(18,24) --> 49,
(18,25) --> 48,
(18,26) --> 47,
(18,27) --> 66,
(18,28) --> 36,
(18,29) --> 50,
(18,30) --> 66,
(18,31) --> 54,
(18,32) --> 30,
(19,0) --> 41,
(19,1) --> 16,
(19,2) --> 27,
(19,3) --> 36,
(19,4) --> 41,
(19,5) --> 21,
(19,6) --> 11,
(19,7) --> 9,
(19,8) --> 36,
(19,9) --> 36,
(19,10) --> 37,
(19,11) --> 36,
(19,12) --> 52,
(19,13) --> 18,
(19,14) --> 28,
(19,15) --> 29,
(19,16) --> 76,
(19,17) --> 26,
(19,18) --> 12,
(19,19) --> 0,
(19,20) --> 25,
(19,21) --> 50,
(19,22) --> 44,
(19,23) --> 73,
(19,24) --> 59,
(19,25) --> 58,
(19,26) --> 52,
(19,27) --> 77,
(19,28) --> 47,
(19,29) --> 42,
(19,30) --> 76,
(19,31) --> 66,
(19,32) --> 40,
(20,0) --> 62,
(20,1) --> 36,
(20,2) --> 6,
(20,3) --> 21,
(20,4) --> 30,
(20,5) --> 30,
(20,6) --> 32,
(20,7) --> 26,
(20,8) --> 24,
(20,9) --> 11,
(20,10) --> 60,
(20,11) --> 60,
(20,12) --> 76,
(20,13) --> 34,
(20,14) --> 50,
(20,15) --> 5,
(20,16) --> 99,
(20,17) --> 51,
(20,18) --> 33,
(20,19) --> 25,
(20,20) --> 0,
(20,21) --> 74,
(20,22) --> 41,
(20,23) --> 76,
(20,24) --> 65,
(20,25) --> 81,
(20,26) --> 46,
(20,27) --> 98,
(20,28) --> 68,
(20,29) --> 57,
(20,30) --> 98,
(20,31) --> 80,
(20,32) --> 62,
(21,0) --> 23,
(21,1) --> 39,
(21,2) --> 74,
(21,3) --> 78,
(21,4) --> 78,
(21,5) --> 52,
(21,6) --> 42,
(21,7) --> 49,
(21,8) --> 75,
(21,9) --> 84,
(21,10) --> 15,
(21,11) --> 31,
(21,12) --> 13,
(21,13) --> 43,
(21,14) --> 26,
(21,15) --> 77,
(21,16) --> 28,
(21,17) --> 24,
(21,18) --> 42,
(21,19) --> 50,
(21,20) --> 74,
(21,21) --> 0,
(21,22) --> 71,
(21,23) --> 78,
(21,24) --> 66,
(21,25) --> 15,
(21,26) --> 80,
(21,27) --> 35,
(21,28) --> 22,
(21,29) --> 60,
(21,30) --> 29,
(21,31) --> 50,
(21,32) --> 15,
(22,0) --> 49,
(22,1) --> 37,
(22,2) --> 36,
(22,3) --> 24,
(22,4) --> 16,
(22,5) --> 24,
(22,6) --> 39,
(22,7) --> 36,
(22,8) --> 18,
(22,9) --> 44,
(22,10) --> 56,
(22,11) --> 75,
(22,12) --> 80,
(22,13) --> 32,
(22,14) --> 46,
(22,15) --> 39,
(22,16) --> 88,
(22,17) --> 57,
(22,18) --> 38,
(22,19) --> 44,
(22,20) --> 41,
(22,21) --> 71,
(22,22) --> 0,
(22,23) --> 36,
(22,24) --> 27,
(22,25) --> 71,
(22,26) --> 9,
(22,27) --> 80,
(22,28) --> 54,
(22,29) --> 86,
(22,30) --> 85,
(22,31) --> 51,
(22,32) --> 56,
(23,0) --> 55,
(23,1) --> 60,
(23,2) --> 72,
(23,3) --> 60,
(23,4) --> 51,
(23,5) --> 52,
(23,6) --> 64,
(23,7) --> 64,
(23,8) --> 54,
(23,9) --> 81,
(23,10) --> 67,
(23,11) --> 94,
(23,12) --> 91,
(23,13) --> 56,
(23,14) --> 61,
(23,15) --> 75,
(23,16) --> 84,
(23,17) --> 74,
(23,18) --> 63,
(23,19) --> 73,
(23,20) --> 76,
(23,21) --> 78,
(23,22) --> 36,
(23,23) --> 0,
(23,24) --> 14,
(23,25) --> 71,
(23,26) --> 35,
(23,27) --> 71,
(23,28) --> 56,
(23,29) --> 113,
(23,30) --> 79,
(23,31) --> 34,
(23,32) --> 64,
(24,0) --> 42,
(24,1) --> 46,
(24,2) --> 60,
(24,3) --> 50,
(24,4) --> 42,
(24,5) --> 38,
(24,6) --> 50,
(24,7) --> 51,
(24,8) --> 44,
(24,9) --> 70,
(24,10) --> 54,
(24,11) --> 80,
(24,12) --> 78,
(24,13) --> 42,
(24,14) --> 47,
(24,15) --> 64,
(24,16) --> 75,
(24,17) --> 60,
(24,18) --> 49,
(24,19) --> 59,
(24,20) --> 65,
(24,21) --> 66,
(24,22) --> 27,
(24,23) --> 14,
(24,24) --> 0,
(24,25) --> 60,
(24,26) --> 29,
(24,27) --> 63,
(24,28) --> 44,
(24,29) --> 99,
(24,30) --> 70,
(24,31) --> 28,
(24,32) --> 52,
(25,0) --> 21,
(25,1) --> 45,
(25,2) --> 81,
(25,3) --> 82,
(25,4) --> 81,
(25,5) --> 56,
(25,6) --> 49,
(25,7) --> 55,
(25,8) --> 78,
(25,9) --> 91,
(25,10) --> 21,
(25,11) --> 45,
(25,12) --> 27,
(25,13) --> 48,
(25,14) --> 31,
(25,15) --> 84,
(25,16) --> 18,
(25,17) --> 34,
(25,18) --> 48,
(25,19) --> 58,
(25,20) --> 81,
(25,21) --> 15,
(25,22) --> 71,
(25,23) --> 71,
(25,24) --> 60,
(25,25) --> 0,
(25,26) --> 79,
(25,27) --> 21,
(25,28) --> 17,
(25,29) --> 74,
(25,30) --> 17,
(25,31) --> 39,
(25,32) --> 19,
(26,0) --> 58,
(26,1) --> 46,
(26,2) --> 40,
(26,3) --> 27,
(26,4) --> 17,
(26,5) --> 33,
(26,6) --> 47,
(26,7) --> 44,
(26,8) --> 21,
(26,9) --> 47,
(26,10) --> 65,
(26,11) --> 84,
(26,12) --> 89,
(26,13) --> 41,
(26,14) --> 55,
(26,15) --> 43,
(26,16) --> 96,
(26,17) --> 66,
(26,18) --> 47,
(26,19) --> 52,
(26,20) --> 46,
(26,21) --> 80,
(26,22) --> 9,
(26,23) --> 35,
(26,24) --> 29,
(26,25) --> 79,
(26,26) --> 0,
(26,27) --> 87,
(26,28) --> 62,
(26,29) --> 94,
(26,30) --> 93,
(26,31) --> 56,
(26,32) --> 65,
(27,0) --> 36,
(27,1) --> 63,
(27,2) --> 97,
(27,3) --> 96,
(27,4) --> 93,
(27,5) --> 70,
(27,6) --> 67,
(27,7) --> 73,
(27,8) --> 91,
(27,9) --> 108,
(27,10) --> 41,
(27,11) --> 66,
(27,12) --> 46,
(27,13) --> 64,
(27,14) --> 49,
(27,15) --> 101,
(27,16) --> 17,
(27,17) --> 55,
(27,18) --> 66,
(27,19) --> 77,
(27,20) --> 98,
(27,21) --> 35,
(27,22) --> 80,
(27,23) --> 71,
(27,24) --> 63,
(27,25) --> 21,
(27,26) --> 87,
(27,27) --> 0,
(27,28) --> 31,
(27,29) --> 95,
(27,30) --> 11,
(27,31) --> 36,
(27,32) --> 38,
(28,0) --> 6,
(28,1) --> 32,
(28,2) --> 67,
(28,3) --> 67,
(28,4) --> 64,
(28,5) --> 40,
(28,6) --> 37,
(28,7) --> 42,
(28,8) --> 62,
(28,9) --> 78,
(28,10) --> 15,
(28,11) --> 46,
(28,12) --> 35,
(28,13) --> 34,
(28,14) --> 19,
(28,15) --> 70,
(28,16) --> 34,
(28,17) --> 29,
(28,18) --> 36,
(28,19) --> 47,
(28,20) --> 68,
(28,21) --> 22,
(28,22) --> 54,
(28,23) --> 56,
(28,24) --> 44,
(28,25) --> 17,
(28,26) --> 62,
(28,27) --> 31,
(28,28) --> 0,
(28,29) --> 72,
(28,30) --> 32,
(28,31) --> 29,
(28,32) --> 11,
(29,0) --> 68,
(29,1) --> 53,
(29,2) --> 62,
(29,3) --> 75,
(29,4) --> 82,
(29,5) --> 63,
(29,6) --> 49,
(29,7) --> 51,
(29,8) --> 77,
(29,9) --> 65,
(29,10) --> 57,
(29,11) --> 29,
(29,12) --> 52,
(29,13) --> 57,
(29,14) --> 56,
(29,15) --> 62,
(29,16) --> 86,
(29,17) --> 44,
(29,18) --> 50,
(29,19) --> 42,
(29,20) --> 57,
(29,21) --> 60,
(29,22) --> 86,
(29,23) --> 113,
(29,24) --> 99,
(29,25) --> 74,
(29,26) --> 94,
(29,27) --> 95,
(29,28) --> 72,
(29,29) --> 0,
(29,30) --> 89,
(29,31) --> 99,
(29,32) --> 61,
(30,0) --> 38,
(30,1) --> 63,
(30,2) --> 98,
(30,3) --> 99,
(30,4) --> 96,
(30,5) --> 72,
(30,6) --> 67,
(30,7) --> 73,
(30,8) --> 94,
(30,9) --> 109,
(30,10) --> 39,
(30,11) --> 60,
(30,12) --> 38,
(30,13) --> 65,
(30,14) --> 49,
(30,15) --> 102,
(30,16) --> 6,
(30,17) --> 52,
(30,18) --> 66,
(30,19) --> 76,
(30,20) --> 98,
(30,21) --> 29,
(30,22) --> 85,
(30,23) --> 79,
(30,24) --> 70,
(30,25) --> 17,
(30,26) --> 93,
(30,27) --> 11,
(30,28) --> 32,
(30,29) --> 89,
(30,30) --> 0,
(30,31) --> 45,
(30,32) --> 36,
(31,0) --> 31,
(31,1) --> 50,
(31,2) --> 77,
(31,3) --> 72,
(31,4) --> 66,
(31,5) --> 51,
(31,6) --> 55,
(31,7) --> 59,
(31,8) --> 66,
(31,9) --> 88,
(31,10) --> 44,
(31,11) --> 74,
(31,12) --> 63,
(31,13) --> 49,
(31,14) --> 43,
(31,15) --> 81,
(31,16) --> 50,
(31,17) --> 55,
(31,18) --> 54,
(31,19) --> 66,
(31,20) --> 80,
(31,21) --> 50,
(31,22) --> 51,
(31,23) --> 34,
(31,24) --> 28,
(31,25) --> 39,
(31,26) --> 56,
(31,27) --> 36,
(31,28) --> 29,
(31,29) --> 99,
(31,30) --> 45,
(31,31) --> 0,
(31,32) --> 40,
(32,0) --> 9,
(32,1) --> 27,
(32,2) --> 62,
(32,3) --> 65,
(32,4) --> 64,
(32,5) --> 38,
(32,6) --> 31,
(32,7) --> 37,
(32,8) --> 61,
(32,9) --> 73,
(32,10) --> 4,
(32,11) --> 34,
(32,12) --> 26,
(32,13) --> 30,
(32,14) --> 13,
(32,15) --> 66,
(32,16) --> 37,
(32,17) --> 18,
(32,18) --> 30,
(32,19) --> 40,
(32,20) --> 62,
(32,21) --> 15,
(32,22) --> 56,
(32,23) --> 64,
(32,24) --> 52,
(32,25) --> 19,
(32,26) --> 65,
(32,27) --> 38,
(32,28) --> 11,
(32,29) --> 61,
(32,30) --> 36,
(32,31) --> 40,
(32,32) --> 0)
letting orderWeights be function (
1 --> 26
,
2 --> 17
,
3 --> 6
,
4 --> 15
,
5 --> 7
,
6 --> 5
,
7 --> 15
,
8 --> 16
,
9 --> 17
,
10 --> 1
,
11 --> 21
,
12 --> 66
,
13 --> 25
,
14 --> 16
,
15 --> 11
,
16 --> 7
,
17 --> 17
,
18 --> 17
,
19 --> 22
,
20 --> 10
,
21 --> 25
,
22 --> 16
,
23 --> 7
,
24 --> 21
,
25 --> 11
,
26 --> 21
,
27 --> 11
,
28 --> 21
,
29 --> 22
,
30 --> 25
,
31 --> 2
,
32 --> 22
)
letting vehicleCapacity be 100
